NAME : tsp40_20.193.tour
COMMENT : Length = 193
COMMENT : Found by LKH [Keld Helsgaun]
TYPE : TOUR
DIMENSION : 40
TOUR_SECTION
1
31
37
29
14
28
30
10
15
12
25
9
3
11
18
34
24
35
4
6
38
16
2
19
23
8
21
7
22
17
26
20
36
5
13
39
27
32
33
40
-1
EOF
